c User generated cnf file
p cnf 10 41
6 2 -9 0 
7 -7 1 0 
-3 9 4 0 
7 -9 6 0 
-7 4 10 0 
-8 9 7 0 
1 4 -1 0 
-7 8 9 0 
10 -4 7 0 
-9 1 2 0 
-1 1 1 0 
-1 2 6 0 
-4 9 8 0 
-7 10 1 0 
-5 3 10 0 
2 -9 6 0 
7 -3 9 0 
-1 10 7 0 
8 -6 8 0 
6 3 -6 0 
-4 7 7 0 
5 9 -10 0 
10 10 -10 0 
3 7 -8 0 
-8 6 5 0 
3 6 -9 0 
1 7 -6 0 
3 6 -2 0 
3 4 -9 0 
10 6 -10 0 
-3 4 5 0 
7 7 -1 0 
3 8 -1 0 
9 2 -9 0 
5 -8 10 0 
2 -5 4 0 
7 3 -3 0 
-5 9 4 0 
3 -7 10 0 
8 6 -4 0 
-9 4 5 0 
